c [0, 1, 0, 1, 0, 0, 1, 1]
c [1, 0, 1, 0, 1, 0, 1, 1]
c [0, 1, 0, 0, 1, 1, 0, 1]
c [1, 0, 0, 0, 0, 0, 1, 1]
c [0, 1, 1, 0, 0, 1, 1, 1]
c [0, 0, 1, 0, 1, 0, 1, 1]
c [1, 1, 0, 1, 1, 1, 0, 1]
c [1, 1, 1, 1, 1, 1, 1, 0]
c k = 3
p cnf 8 90
1 2 0
1 3 0
1 4 0
1 5 0
2 6 0
2 7 0
2 4 0
2 5 0
6 7 0
6 8 0
6 5 0
3 4 0
3 5 0
7 8 0
7 4 0
7 5 0
8 4 0
8 5 0
4 5 0
-1 -2 -6 -3 0
-1 -2 -6 -7 0
-1 -2 -6 -8 0
-1 -2 -6 -4 0
-1 -2 -6 -5 0
-1 -2 -3 -7 0
-1 -2 -3 -8 0
-1 -2 -3 -4 0
-1 -2 -3 -5 0
-1 -2 -7 -8 0
-1 -2 -7 -4 0
-1 -2 -7 -5 0
-1 -2 -8 -4 0
-1 -2 -8 -5 0
-1 -2 -4 -5 0
-1 -6 -3 -7 0
-1 -6 -3 -8 0
-1 -6 -3 -4 0
-1 -6 -3 -5 0
-1 -6 -7 -8 0
-1 -6 -7 -4 0
-1 -6 -7 -5 0
-1 -6 -8 -4 0
-1 -6 -8 -5 0
-1 -6 -4 -5 0
-1 -3 -7 -8 0
-1 -3 -7 -4 0
-1 -3 -7 -5 0
-1 -3 -8 -4 0
-1 -3 -8 -5 0
-1 -3 -4 -5 0
-1 -7 -8 -4 0
-1 -7 -8 -5 0
-1 -7 -4 -5 0
-1 -8 -4 -5 0
-2 -6 -3 -7 0
-2 -6 -3 -8 0
-2 -6 -3 -4 0
-2 -6 -3 -5 0
-2 -6 -7 -8 0
-2 -6 -7 -4 0
-2 -6 -7 -5 0
-2 -6 -8 -4 0
-2 -6 -8 -5 0
-2 -6 -4 -5 0
-2 -3 -7 -8 0
-2 -3 -7 -4 0
-2 -3 -7 -5 0
-2 -3 -8 -4 0
-2 -3 -8 -5 0
-2 -3 -4 -5 0
-2 -7 -8 -4 0
-2 -7 -8 -5 0
-2 -7 -4 -5 0
-2 -8 -4 -5 0
-6 -3 -7 -8 0
-6 -3 -7 -4 0
-6 -3 -7 -5 0
-6 -3 -8 -4 0
-6 -3 -8 -5 0
-6 -3 -4 -5 0
-6 -7 -8 -4 0
-6 -7 -8 -5 0
-6 -7 -4 -5 0
-6 -8 -4 -5 0
-3 -7 -8 -4 0
-3 -7 -8 -5 0
-3 -7 -4 -5 0
-3 -8 -4 -5 0
-7 -8 -4 -5 0
1 2 6 3 7 8 4 5 0